(set-info :source |printed by MathSAT|)
(declare-fun call_mesi.flby4 () Int)
(declare-fun call_mesi.ite13 () Int)
(declare-fun call_mesi.ite28 () Int)
(declare-fun call_mesi.ite32 () Int)
(declare-fun call_mesi.ite23 () Int)
(declare-fun call_mesi.ite17 () Int)
(declare-fun call_mesi.flby3 () Int)
(declare-fun call_mesi.ite14 () Int)
(declare-fun _OK_ () Bool)
(declare-fun call_mesi.ite5 () Int)
(declare-fun call_mesi.ite4 () Int)
(declare-fun call_mesi.ite29 () Int)
(declare-fun env () Bool)
(declare-fun call_mesi.ite21 () Int)
(declare-fun call_Sofar.flby () Bool)
(declare-fun call_mesi.ite31 () Int)
(declare-fun exclusive_me () Int)
(declare-fun call_mesi.ite27 () Int)
(declare-fun call_mesi.garde_me4 () Bool)
(declare-fun call_mesi.flby () Int)
(declare-fun call_mesi.ite19 () Int)
(declare-fun call_mesi.ite20 () Int)
(declare-fun call_mesi.ite22 () Int)
(declare-fun call_mesi.garde_me1 () Bool)
(declare-fun call_mesi.ite11 () Int)
(declare-fun call_mesi.ite () Int)
(declare-fun param_etat_me4 () Bool)
(declare-fun call_mesi.ite26 () Int)
(declare-fun call_mesi.ite2 () Int)
(declare-fun call_mesi.modified_me () Int)
(declare-fun invalid_me () Int)
(declare-fun modified_me () Int)
(declare-fun call_mesi.ite25 () Int)
(declare-fun call_mesi.ite16 () Int)
(declare-fun call_mesi.ite18 () Int)
(declare-fun call_mesi.shared_me () Int)
(declare-fun call_mesi.exclusive_me () Int)
(declare-fun call_excludes4.excludes () Bool)
(declare-fun param_etat_me2 () Bool)
(declare-fun param_etat_me1 () Bool)
(declare-fun call_mesi.ite9 () Int)
(declare-fun call_mesi.ite15 () Int)
(declare-fun call_mesi.ite8 () Int)
(declare-fun call_mesi.ite30 () Int)
(declare-fun call_mesi.garde_me3 () Bool)
(declare-fun call_mesi.ite10 () Int)
(declare-fun call_Sofar.Sofar () Bool)
(declare-fun call_mesi.ite12 () Int)
(declare-fun call_mesi.ite3 () Int)
(declare-fun call_mesi.flby2 () Int)
(declare-fun call_mesi.ite6 () Int)
(declare-fun call_mesi.ite24 () Int)
(declare-fun call_mesi.ite7 () Int)
(declare-fun call_mesi.invalid_me () Int)
(declare-fun shared_me () Int)
(declare-fun param_etat_me3 () Bool)
(define-fun .def_795 () Bool (= call_Sofar.flby call_Sofar.Sofar))
(define-fun .def_790 () Bool (and param_etat_me4 param_etat_me3))
(define-fun .def_784 () Bool (and param_etat_me1 param_etat_me2))
(define-fun .def_785 () Bool (and param_etat_me1 .def_784))
(define-fun .def_786 () Bool (and param_etat_me3 .def_785))
(define-fun .def_783 () Bool (and param_etat_me4 param_etat_me1))
(define-fun .def_787 () Bool (or .def_783 .def_786))
(define-fun .def_782 () Bool (and param_etat_me3 param_etat_me2))
(define-fun .def_788 () Bool (or .def_782 .def_787))
(define-fun .def_781 () Bool (and param_etat_me4 param_etat_me2))
(define-fun .def_789 () Bool (or .def_781 .def_788))
(define-fun .def_791 () Bool (or .def_789 .def_790))
(define-fun .def_792 () Bool (not .def_791))
(define-fun .def_793 () Bool (= call_excludes4.excludes .def_792))
(define-fun .def_779 () Bool (= call_mesi.flby4 call_mesi.invalid_me))
(define-fun .def_777 () Bool (= call_mesi.flby3 call_mesi.shared_me))
(define-fun .def_775 () Bool (= call_mesi.flby2 call_mesi.exclusive_me))
(define-fun .def_773 () Bool (= call_mesi.flby call_mesi.modified_me))
(define-fun .def_769 () Bool (= call_mesi.ite30 call_mesi.ite31))
(define-fun .def_770 () Bool (or param_etat_me2 .def_769))
(define-fun .def_766 () Bool (= call_mesi.ite31 call_mesi.ite26))
(define-fun .def_748 () Bool (not param_etat_me2))
(define-fun .def_767 () Bool (or .def_748 .def_766))
(define-fun .def_762 () Bool (= call_mesi.ite22 call_mesi.ite23))
(define-fun .def_763 () Bool (or param_etat_me2 .def_762))
(define-fun .def_759 () Bool (= call_mesi.ite23 call_mesi.ite18))
(define-fun .def_760 () Bool (or .def_748 .def_759))
(define-fun .def_755 () Bool (= call_mesi.ite14 call_mesi.ite15))
(define-fun .def_756 () Bool (or param_etat_me2 .def_755))
(define-fun .def_752 () Bool (= call_mesi.ite15 call_mesi.ite10))
(define-fun .def_753 () Bool (or .def_748 .def_752))
(define-fun .def_747 () Bool (= call_mesi.ite7 call_mesi.ite2))
(define-fun .def_749 () Bool (or .def_747 .def_748))
(define-fun .def_743 () Bool (= call_mesi.ite6 call_mesi.ite7))
(define-fun .def_745 () Bool (or .def_743 param_etat_me2))
(define-fun .def_750 () Bool (and .def_745 .def_749))
(define-fun .def_754 () Bool (and .def_750 .def_753))
(define-fun .def_757 () Bool (and .def_754 .def_756))
(define-fun .def_761 () Bool (and .def_757 .def_760))
(define-fun .def_764 () Bool (and .def_761 .def_763))
(define-fun .def_768 () Bool (and .def_764 .def_767))
(define-fun .def_771 () Bool (and .def_768 .def_770))
(define-fun .def_739 () Bool (= call_mesi.ite32 call_mesi.ite31))
(define-fun .def_740 () Bool (or param_etat_me1 .def_739))
(define-fun .def_735 () Bool (= call_mesi.ite25 call_mesi.ite32))
(define-fun .def_713 () Bool (not param_etat_me1))
(define-fun .def_736 () Bool (or .def_713 .def_735))
(define-fun .def_730 () Bool (= call_mesi.ite24 call_mesi.ite23))
(define-fun .def_731 () Bool (or param_etat_me1 .def_730))
(define-fun .def_726 () Bool (= call_mesi.ite17 call_mesi.ite24))
(define-fun .def_727 () Bool (or .def_713 .def_726))
(define-fun .def_721 () Bool (= call_mesi.ite16 call_mesi.ite15))
(define-fun .def_722 () Bool (or param_etat_me1 .def_721))
(define-fun .def_717 () Bool (= call_mesi.ite9 call_mesi.ite16))
(define-fun .def_718 () Bool (or .def_713 .def_717))
(define-fun .def_712 () Bool (= call_mesi.ite call_mesi.ite8))
(define-fun .def_714 () Bool (or .def_712 .def_713))
(define-fun .def_709 () Bool (= call_mesi.ite8 call_mesi.ite7))
(define-fun .def_711 () Bool (or .def_709 param_etat_me1))
(define-fun .def_715 () Bool (and .def_711 .def_714))
(define-fun .def_719 () Bool (and .def_715 .def_718))
(define-fun .def_723 () Bool (and .def_719 .def_722))
(define-fun .def_728 () Bool (and .def_723 .def_727))
(define-fun .def_732 () Bool (and .def_728 .def_731))
(define-fun .def_737 () Bool (and .def_732 .def_736))
(define-fun .def_741 () Bool (and .def_737 .def_740))
(define-fun .def_705 () Bool (= env call_Sofar.Sofar))
(define-fun .def_702 () Bool (= invalid_me call_mesi.invalid_me))
(define-fun .def_699 () Bool (= shared_me call_mesi.shared_me))
(define-fun .def_695 () Bool (= exclusive_me call_mesi.exclusive_me))
(define-fun .def_691 () Bool (= modified_me call_mesi.modified_me))
(define-fun .def_685 () Bool (= call_mesi.ite29 call_mesi.ite30))
(define-fun .def_686 () Bool (or param_etat_me3 .def_685))
(define-fun .def_682 () Bool (= call_mesi.ite27 call_mesi.ite30))
(define-fun .def_663 () Bool (not param_etat_me3))
(define-fun .def_683 () Bool (or .def_663 .def_682))
(define-fun .def_677 () Bool (= call_mesi.ite21 call_mesi.ite22))
(define-fun .def_678 () Bool (or param_etat_me3 .def_677))
(define-fun .def_674 () Bool (= call_mesi.ite19 call_mesi.ite22))
(define-fun .def_675 () Bool (or .def_663 .def_674))
(define-fun .def_670 () Bool (= call_mesi.ite13 call_mesi.ite14))
(define-fun .def_671 () Bool (or param_etat_me3 .def_670))
(define-fun .def_667 () Bool (= call_mesi.ite11 call_mesi.ite14))
(define-fun .def_668 () Bool (or .def_663 .def_667))
(define-fun .def_662 () Bool (= call_mesi.ite3 call_mesi.ite6))
(define-fun .def_664 () Bool (or .def_662 .def_663))
(define-fun .def_659 () Bool (= call_mesi.ite5 call_mesi.ite6))
(define-fun .def_661 () Bool (or .def_659 param_etat_me3))
(define-fun .def_665 () Bool (and .def_661 .def_664))
(define-fun .def_669 () Bool (and .def_665 .def_668))
(define-fun .def_672 () Bool (and .def_669 .def_671))
(define-fun .def_676 () Bool (and .def_672 .def_675))
(define-fun .def_679 () Bool (and .def_676 .def_678))
(define-fun .def_684 () Bool (and .def_679 .def_683))
(define-fun .def_687 () Bool (and .def_684 .def_686))
(define-fun .def_655 () Bool (<= 0 invalid_me))
(define-fun .def_653 () Bool (not env))
(define-fun .def_656 () Bool (or .def_653 .def_655))
(define-fun .def_657 () Bool (= _OK_ .def_656))
(define-fun .def_688 () Bool (and .def_657 .def_687))
(define-fun .def_692 () Bool (and .def_688 .def_691))
(define-fun .def_696 () Bool (and .def_692 .def_695))
(define-fun .def_700 () Bool (and .def_696 .def_699))
(define-fun .def_703 () Bool (and .def_700 .def_702))
(define-fun .def_706 () Bool (and .def_703 .def_705))
(define-fun .def_742 () Bool (and .def_706 .def_741))
(define-fun .def_772 () Bool (and .def_742 .def_771))
(define-fun .def_774 () Bool (and .def_772 .def_773))
(define-fun .def_776 () Bool (and .def_774 .def_775))
(define-fun .def_778 () Bool (and .def_776 .def_777))
(define-fun .def_780 () Bool (and .def_778 .def_779))
(define-fun .def_794 () Bool (and .def_780 .def_793))
(define-fun .def_796 () Bool (and .def_794 .def_795))
(define-fun .def_649 () Bool (= call_excludes4.excludes call_Sofar.flby))
(define-fun .def_645 () Bool (= call_mesi.flby4 3))
(define-fun .def_642 () Bool (= call_mesi.flby3 0))
(define-fun .def_639 () Bool (= call_mesi.flby2 0))
(define-fun .def_636 () Bool (= call_mesi.flby 0))
(define-fun .def_631 () Bool (= call_mesi.ite20 0))
(define-fun .def_626 () Bool (not call_mesi.garde_me4))
(define-fun .def_632 () Bool (or .def_626 .def_631))
(define-fun .def_628 () Bool (= call_mesi.ite4 0))
(define-fun .def_629 () Bool (or .def_626 .def_628))
(define-fun .def_624 () Bool (= call_mesi.ite12 1))
(define-fun .def_627 () Bool (or .def_624 .def_626))
(define-fun .def_630 () Bool (and .def_627 .def_629))
(define-fun .def_633 () Bool (and .def_630 .def_632))
(define-fun .def_620 () Bool (= call_mesi.ite19 0))
(define-fun .def_613 () Bool (not call_mesi.garde_me3))
(define-fun .def_621 () Bool (or .def_613 .def_620))
(define-fun .def_616 () Bool (= call_mesi.ite3 0))
(define-fun .def_617 () Bool (or .def_613 .def_616))
(define-fun .def_611 () Bool (= call_mesi.ite11 1))
(define-fun .def_614 () Bool (or .def_611 .def_613))
(define-fun .def_618 () Bool (and .def_614 .def_617))
(define-fun .def_622 () Bool (and .def_618 .def_621))
(define-fun .def_606 () Bool (= call_mesi.ite 0))
(define-fun .def_603 () Bool (not call_mesi.garde_me1))
(define-fun .def_607 () Bool (or .def_603 .def_606))
(define-fun .def_601 () Bool (= call_mesi.ite9 0))
(define-fun .def_604 () Bool (or .def_601 .def_603))
(define-fun .def_608 () Bool (and .def_604 .def_607))
(define-fun .def_597 () Bool (= call_mesi.ite28 call_mesi.ite29))
(define-fun .def_583 () Bool (not param_etat_me4))
(define-fun .def_598 () Bool (or .def_583 .def_597))
(define-fun .def_592 () Bool (= call_mesi.ite20 call_mesi.ite21))
(define-fun .def_593 () Bool (or .def_583 .def_592))
(define-fun .def_587 () Bool (= call_mesi.ite4 call_mesi.ite5))
(define-fun .def_588 () Bool (or .def_583 .def_587))
(define-fun .def_581 () Bool (= call_mesi.ite12 call_mesi.ite13))
(define-fun .def_584 () Bool (or .def_581 .def_583))
(define-fun .def_589 () Bool (and .def_584 .def_588))
(define-fun .def_594 () Bool (and .def_589 .def_593))
(define-fun .def_599 () Bool (and .def_594 .def_598))
(define-fun .def_609 () Bool (and .def_599 .def_608))
(define-fun .def_623 () Bool (and .def_609 .def_622))
(define-fun .def_634 () Bool (and .def_623 .def_633))
(define-fun .def_637 () Bool (and .def_634 .def_636))
(define-fun .def_640 () Bool (and .def_637 .def_639))
(define-fun .def_643 () Bool (and .def_640 .def_642))
(define-fun .def_646 () Bool (and .def_643 .def_645))
(define-fun .def_650 () Bool (and .def_646 .def_649))
(define-fun .def_797 () Bool (and .def_650 .def_796))
(assert .def_797)
